(declare-fun nit () Int)
(declare-fun nx () Int)
(declare-fun ny () Int)

(assert (forall ((n Int) (nt Int))
  (=>
    (and
      (<= 0 n)
      (<= (+ n 1) (- nt 1))
      (not (or (exists ((x_0 Int)(q_1 Int)(y_0 Int)(y_1 Int)) (and (or (and (= (+ x_0 1) 0) (= y_0 y_1)) (and (= (- x_0 1) 0) (= y_0 y_1))) (<= 0 q_1) (<= q_1 (- nit 1)) (<= 0 y_1) (<= y_1 (- ny 1)) (<= 1 y_0) (<= y_0 (- ny 2)) (<= 1 x_0) (<= x_0 (- nx 2)))) (exists ((q_1 Int)(y_0 Int)(x_0 Int)(y_1 Int)(x_1 Int)) (and (<= 1 y_1) (<= y_1 (- ny 2)) (<= 1 x_1) (<= x_1 (- nx 2)) (<= 0 q_1) (<= q_1 (- nit 1)) (or (and (= (+ x_0 1) x_1) (= y_0 y_1)) (and (= y_0 y_1) (= (- x_0 1) x_1))) (<= 1 y_0) (<= y_0 (- ny 2)) (<= 1 x_0) (<= x_0 (- nx 2)))) (exists ((x_0 Int)(x_1 Int)(y_1 Int)(q_0 Int)) (and (<= 1 y_1) (<= y_1 (- ny 2)) (<= 1 x_1) (<= x_1 (- nx 2)) (<= 0 x_0) (<= x_0 (- nx 1)) (<= 0 q_0) (<= q_0 (- nit 1)) (or (and (= x_0 x_1) (= (- ny 1) (+ y_1 1))) (and (= (- ny 1) (- y_1 1)) (= x_0 x_1))))) (exists ((x_0 Int)(x_1 Int)(y_1 Int)(q_0 Int)) (and (<= 1 y_1) (<= y_1 (- ny 2)) (<= 1 x_1) (<= x_1 (- nx 2)) (<= 0 x_0) (<= x_0 (- nx 1)) (or (and (= (- ny 1) y_1) (= x_0 (+ x_1 1))) (and (= x_0 (- x_1 1)) (= (- ny 1) y_1))) (<= 0 q_0) (<= q_0 (- nit 1)))) (exists ((x_0 Int)(x_1 Int)(q_1 Int)(q_0 Int)) (and (<= 0 q_1) (<= q_1 (- nit 1)) (<= 0 x_0) (<= x_0 (- nx 1)) (<= 0 q_0) (<= q_0 (- nit 1)) (<= 0 x_1) (<= x_1 (- nx 1)) (= x_0 x_1))) (exists ((x_0 Int)(q_1 Int)(y_1 Int)(q_0 Int)) (and (or (and (= (- ny 1) y_1) (= x_0 1)) (and (= x_0 0) (= (- ny 1) y_1))) (<= 0 q_1) (<= q_1 (- nit 1)) (<= 0 x_0) (<= x_0 (- nx 1)) (<= 0 y_1) (<= 0 q_0) (<= q_0 (- nit 1)) (<= y_1 (- ny 1)))) (exists ((x_0 Int)(x_1 Int)(q_1 Int)(q_0 Int)) (and (<= 0 q_1) (<= q_1 (- nit 1)) (<= 0 x_0) (<= x_0 (- nx 1)) (<= 0 q_0) (<= q_0 (- nit 1)) (<= 0 x_1) (<= x_1 (- nx 1)) (or (and (= x_0 x_1) (= (- ny 1) 0)) (and (= (- ny 1) 1) (= x_0 x_1))))) (exists ((x_0 Int)(q_1 Int)(y_1 Int)(q_0 Int)) (and (<= 0 q_1) (<= q_1 (- nit 1)) (<= 0 x_0) (<= x_0 (- nx 1)) (or (and (= (- ny 1) y_1) (= x_0 (- nx 1))) (and (= (- ny 1) y_1) (= x_0 (- nx 2)))) (<= 0 y_1) (<= 0 q_0) (<= q_0 (- nit 1)) (<= y_1 (- ny 1)))) (exists ((q_1 Int)(x_0 Int)(y_1 Int)(q_0 Int)(x_1 Int)) (and (<= 1 y_1) (<= y_1 (- ny 2)) (<= 1 x_1) (<= x_1 (- nx 2)) (<= 0 q_1) (<= q_1 (- nit 1)) (<= 0 x_0) (<= x_0 (- nx 1)) (<= 0 q_0) (<= q_0 (- nit 1)) (= (- ny 1) y_1) (= x_0 x_1))) (exists ((q_1 Int)(x_0 Int)(y_1 Int)(q_0 Int)(x_1 Int)) (and (<= 0 q_1) (<= q_1 (- nit 1)) (<= 0 x_0) (<= x_0 (- nx 1)) (<= 0 y_1) (<= 0 q_0) (<= q_0 (- nit 1)) (<= y_1 (- ny 1)) (<= 0 x_1) (<= x_1 (- nx 1)) (= (- ny 1) y_1) (= x_0 x_1))) (exists ((x_1 Int)(y_0 Int)(y_1 Int)(q_0 Int)) (and (<= 1 y_1) (<= y_1 (- ny 2)) (or (and (= y_0 (- y_1 1)) (= 0 x_1)) (and (= 0 x_1) (= y_0 (+ y_1 1)))) (<= 1 x_1) (<= x_1 (- nx 2)) (<= 0 y_0) (<= y_0 (- ny 1)) (<= 0 q_0) (<= q_0 (- nit 1)))) (exists ((x_1 Int)(y_0 Int)(y_1 Int)(q_0 Int)) (and (<= 1 y_1) (<= y_1 (- ny 2)) (<= 1 x_1) (<= x_1 (- nx 2)) (<= 0 y_0) (<= y_0 (- ny 1)) (<= 0 q_0) (<= q_0 (- nit 1)) (or (and (= y_0 y_1) (= 0 (+ x_1 1))) (and (= 0 (- x_1 1)) (= y_0 y_1))))) (exists ((q_1 Int)(y_0 Int)(y_1 Int)(q_0 Int)(x_1 Int)) (and (<= 1 y_1) (<= y_1 (- ny 2)) (or (and (= 1 x_1) (= y_0 y_1)) (and (= 0 x_1) (= y_0 y_1))) (<= 1 x_1) (<= x_1 (- nx 2)) (<= 0 q_1) (<= 0 y_0) (<= y_0 (- ny 1)) (<= q_1 (- nit 1)) (<= 0 q_0) (<= q_0 (- nit 1)))) (exists ((x_0 Int)(x_1 Int)(y_1 Int)(q_0 Int)) (and (<= 1 y_1) (<= y_1 (- ny 2)) (<= 1 x_1) (<= x_1 (- nx 2)) (or (and (= 0 (+ y_1 1)) (= x_0 x_1)) (and (= 0 (- y_1 1)) (= x_0 x_1))) (<= 0 x_0) (<= x_0 (- nx 1)) (<= 0 q_0) (<= q_0 (- nit 1)))) (exists ((x_0 Int)(q_1 Int)(y_1 Int)(q_0 Int)) (and (<= 0 q_1) (<= q_1 (- nit 1)) (or (and (= x_0 0) (= 0 y_1)) (and (= x_0 0) (= 1 y_1)) (and (= 0 y_1) (= x_0 1))) (<= 0 x_0) (<= x_0 (- nx 1)) (<= 0 y_1) (<= 0 q_0) (<= q_0 (- nit 1)) (<= y_1 (- ny 1)))) (exists ((x_0 Int)(q_1 Int)(y_1 Int)(q_0 Int)) (and (<= 0 q_1) (<= q_1 (- nit 1)) (<= 0 x_0) (<= x_0 (- nx 1)) (<= 0 y_1) (<= 0 q_0) (<= q_0 (- nit 1)) (<= y_1 (- ny 1)) (or (and (= x_0 (- nx 1)) (= 1 y_1)) (and (= 0 y_1) (= x_0 (- nx 2))) (and (= 0 y_1) (= x_0 (- nx 1)))))) (exists ((q_1 Int)(x_0 Int)(y_1 Int)(q_0 Int)(x_1 Int)) (and (<= 1 y_1) (<= y_1 (- ny 2)) (<= 1 x_1) (<= x_1 (- nx 2)) (<= 0 q_1) (<= q_1 (- nit 1)) (<= 0 x_0) (<= x_0 (- nx 1)) (or (and (= x_0 x_1) (= 1 y_1)) (and (= 0 y_1) (= x_0 x_1))) (<= 0 q_0) (<= q_0 (- nit 1)))) (exists ((q_1 Int)(x_0 Int)(y_1 Int)(q_0 Int)(x_1 Int)) (and (<= 0 q_1) (<= q_1 (- nit 1)) (<= 0 x_0) (<= x_0 (- nx 1)) (= 0 y_1) (<= 0 y_1) (<= 0 q_0) (<= q_0 (- nit 1)) (<= y_1 (- ny 1)) (<= 0 x_1) (<= x_1 (- nx 1)) (= x_0 x_1))) (exists ((x_1 Int)(y_0 Int)(y_1 Int)(q_0 Int)) (and (<= 1 y_1) (<= y_1 (- ny 2)) (<= 1 x_1) (<= x_1 (- nx 2)) (<= 0 y_0) (<= y_0 (- ny 1)) (or (and (= y_0 y_1) (= (- nx 1) (+ x_1 1))) (and (= (- nx 1) (- x_1 1)) (= y_0 y_1))) (<= 0 q_0) (<= q_0 (- nit 1)))) (exists ((q_1 Int)(y_0 Int)(y_1 Int)(q_0 Int)(x_1 Int)) (and (<= 1 y_1) (<= y_1 (- ny 2)) (<= 1 x_1) (<= x_1 (- nx 2)) (<= 0 q_1) (<= 0 y_0) (<= y_0 (- ny 1)) (<= q_1 (- nit 1)) (or (and (= (- nx 2) x_1) (= y_0 y_1)) (and (= y_0 y_1) (= (- nx 1) x_1))) (<= 0 q_0) (<= q_0 (- nit 1)))) (exists ((x_0 Int)(x_1 Int)(y_0 Int)(y_1 Int)) (and (<= 0 y_0) (<= y_0 (- ny 1)) (<= 0 x_0) (<= x_0 (- nx 1)) (<= 0 y_1) (<= y_1 (- ny 1)) (<= 0 x_1) (<= x_1 (- nx 1)) (= y_0 y_1) (= x_0 x_1))) (exists ((x_0 Int)(x_1 Int)(y_0 Int)(y_1 Int)) (and (<= 1 y_1) (<= y_1 (- ny 2)) (<= 1 x_1) (<= x_1 (- nx 2)) (or (and (= x_0 (- x_1 1)) (= y_0 y_1)) (and (= y_0 y_1) (= x_0 (+ x_1 1))) (and (= y_0 (+ y_1 1)) (= x_0 x_1)) (and (= y_0 (- y_1 1)) (= x_0 x_1)) (and (= y_0 y_1) (= x_0 x_1))) (<= 0 y_0) (<= y_0 (- ny 1)) (<= 0 x_0) (<= x_0 (- nx 1)))) (exists ((x_0 Int)(x_1 Int)(y_0 Int)(y_1 Int)) (and (<= 1 y_1) (<= y_1 (- ny 2)) (<= 1 x_1) (<= x_1 (- nx 2)) (<= 0 y_0) (<= y_0 (- ny 1)) (<= 0 x_0) (<= x_0 (- nx 1)) (= y_0 y_1) (= x_0 x_1))) (exists ((q_1 Int)(y_0 Int)(x_0 Int)(y_1 Int)(x_1 Int)) (and (<= 1 y_1) (<= y_1 (- ny 2)) (<= 1 x_1) (<= x_1 (- nx 2)) (<= 0 q_1) (<= q_1 (- nit 1)) (<= 1 y_0) (<= y_0 (- ny 2)) (<= 1 x_0) (<= x_0 (- nx 2)) (= y_0 y_1) (= x_0 x_1))) (exists ((x_0 Int)(x_1 Int)(y_0 Int)) (and (<= 0 y_0) (<= y_0 (- ny 1)) (<= 0 x_0) (<= x_0 (- nx 1)) (<= 0 x_1) (<= x_1 (- nx 1)) (= x_0 x_1) (= y_0 0))) (exists ((x_0 Int)(y_0 Int)(y_1 Int)) (and (= x_0 0) (<= 0 y_0) (<= y_0 (- ny 1)) (<= 0 x_0) (<= x_0 (- nx 1)) (<= 0 y_1) (<= y_1 (- ny 1)) (= y_0 y_1))) (exists ((x_0 Int)(y_0 Int)(y_1 Int)) (and (= x_0 (- nx 1)) (<= 0 y_0) (<= y_0 (- ny 1)) (<= 0 x_0) (<= x_0 (- nx 1)) (<= 0 y_1) (<= y_1 (- ny 1)) (= y_0 y_1))) (exists ((x_0 Int)(x_1 Int)(y_0 Int)) (and (= y_0 (- ny 1)) (<= 0 y_0) (<= y_0 (- ny 1)) (<= 0 x_0) (<= x_0 (- nx 1)) (<= 0 x_1) (<= x_1 (- nx 1)) (= x_0 x_1))) (exists ((x_0 Int)(x_1 Int)(y_0 Int)(y_1 Int)) (and (<= x_1 (- nx 1)) (or (and (= y_0 y_1) (= (- x_0 1) x_1)) (and (= (+ y_0 1) y_1) (= x_0 x_1)) (and (= (- y_0 1) y_1) (= x_0 x_1)) (and (= (+ x_0 1) x_1) (= y_0 y_1)) (and (= y_0 y_1) (= x_0 x_1))) (<= 0 y_1) (<= y_1 (- ny 1)) (<= 1 y_0) (<= y_0 (- ny 2)) (<= 0 x_1) (<= 1 x_0) (<= x_0 (- nx 2)))) (exists ((x_0 Int)(x_1 Int)(y_0 Int)(y_1 Int)) (and (<= x_1 (- nx 1)) (<= 0 y_1) (<= y_1 (- ny 1)) (<= 1 y_0) (<= y_0 (- ny 2)) (<= 0 x_1) (<= 1 x_0) (<= x_0 (- nx 2)) (= y_0 y_1) (= x_0 x_1))) (exists ((x_0 Int)(x_1 Int)(y_0 Int)(y_1 Int)) (and (<= 1 y_1) (<= y_1 (- ny 2)) (<= 1 x_1) (<= x_1 (- nx 2)) (<= 1 y_0) (<= y_0 (- ny 2)) (<= 1 x_0) (<= x_0 (- nx 2)) (= y_0 y_1) (= x_0 x_1))) (exists ((x_0 Int)(x_1 Int)(y_0 Int)(y_1 Int)) (and (<= 1 y_1) (<= y_1 (- ny 2)) (<= 1 x_1) (<= x_1 (- nx 2)) (or (and (= y_0 y_1) (= x_0 (+ x_1 1))) (and (= y_0 (- y_1 1)) (= x_0 x_1)) (and (= x_0 (- x_1 1)) (= y_0 y_1)) (and (= y_0 (+ y_1 1)) (= x_0 x_1))) (<= 1 y_0) (<= y_0 (- ny 2)) (<= 1 x_0) (<= x_0 (- nx 2)))) (exists ((x_0 Int)(x_1 Int)(y_0 Int)(y_1 Int)) (and (<= 1 y_1) (<= y_1 (- ny 2)) (<= 1 x_1) (<= x_1 (- nx 2)) (<= 1 y_0) (<= y_0 (- ny 2)) (<= 1 x_0) (<= x_0 (- nx 2)) (or (and (= (+ x_0 1) x_1) (= y_0 y_1)) (and (= (+ y_0 1) y_1) (= x_0 x_1)) (and (= (- y_0 1) y_1) (= x_0 x_1)) (and (= y_0 y_1) (= (- x_0 1) x_1))))) (exists ((x_0 Int)(x_1 Int)(y_0 Int)) (and (<= x_1 (- nx 1)) (or (and (= (+ x_0 1) x_1) (= y_0 0)) (and (= (+ y_0 1) 0) (= x_0 x_1)) (and (= (- y_0 1) 0) (= x_0 x_1)) (and (= y_0 0) (= (- x_0 1) x_1))) (<= 1 y_0) (<= y_0 (- ny 2)) (<= 0 x_1) (<= 1 x_0) (<= x_0 (- nx 2)))) (exists ((x_0 Int)(x_1 Int)(y_0 Int)) (and (<= x_1 (- nx 1)) (<= 1 y_0) (<= y_0 (- ny 2)) (<= 0 x_1) (<= 1 x_0) (<= x_0 (- nx 2)) (= x_0 x_1) (= y_0 0))) (exists ((x_0 Int)(y_0 Int)(y_1 Int)) (and (= x_0 0) (<= 0 y_1) (<= y_1 (- ny 1)) (<= 1 y_0) (<= y_0 (- ny 2)) (<= 1 x_0) (<= x_0 (- nx 2)) (= y_0 y_1))) (exists ((x_0 Int)(y_0 Int)(y_1 Int)) (and (= x_0 (- nx 1)) (<= 0 y_1) (<= y_1 (- ny 1)) (<= 1 y_0) (<= y_0 (- ny 2)) (<= 1 x_0) (<= x_0 (- nx 2)) (= y_0 y_1))) (exists ((x_0 Int)(x_1 Int)(y_0 Int)) (and (<= x_1 (- nx 1)) (= y_0 (- ny 1)) (<= 1 y_0) (<= y_0 (- ny 2)) (<= 0 x_1) (<= 1 x_0) (<= x_0 (- nx 2)) (= x_0 x_1))) (exists ((x_0 Int)(y_0 Int)(y_1 Int)) (and (<= 0 y_1) (<= y_1 (- ny 1)) (<= 1 y_0) (<= y_0 (- ny 2)) (<= 1 x_0) (<= x_0 (- nx 2)) (or (and (= (+ x_0 1) 0) (= y_0 y_1)) (and (= x_0 0) (= (- y_0 1) y_1)) (and (= (- x_0 1) 0) (= y_0 y_1)) (and (= (+ y_0 1) y_1) (= x_0 0))))) (exists ((x_0 Int)(q_1 Int)(x_1 Int)(y_0 Int)) (and (or (and (= (+ y_0 1) (- ny 1)) (= x_0 x_1)) (and (= x_0 x_1) (= (- y_0 1) (- ny 1)))) (<= x_1 (- nx 1)) (<= 0 q_1) (<= q_1 (- nit 1)) (<= 1 y_0) (<= y_0 (- ny 2)) (<= 0 x_1) (<= 1 x_0) (<= x_0 (- nx 2)))) (exists ((x_0 Int)(q_1 Int)(x_1 Int)(y_0 Int)) (and (<= x_1 (- nx 1)) (or (and (= (+ y_0 1) 0) (= x_0 x_1)) (and (= (- y_0 1) 0) (= x_0 x_1))) (<= 0 q_1) (<= q_1 (- nit 1)) (<= 1 y_0) (<= y_0 (- ny 2)) (<= 0 x_1) (<= 1 x_0) (<= x_0 (- nx 2)))) (exists ((q_1 Int)(y_0 Int)(x_0 Int)(y_1 Int)(q_0 Int)(x_1 Int)) (and (<= 0 q_1) (<= 0 y_0) (<= q_1 (- nit 1)) (<= y_0 (- ny 1)) (<= 0 x_0) (<= x_0 (- nx 1)) (<= 0 y_1) (<= 0 q_0) (<= q_0 (- nit 1)) (<= y_1 (- ny 1)) (<= 0 x_1) (<= x_1 (- nx 1)) (= y_0 y_1) (= x_0 x_1))) (exists ((x_0 Int)(q_1 Int)(y_0 Int)(y_1 Int)) (and (<= 0 q_1) (<= q_1 (- nit 1)) (or (and (= (+ y_0 1) y_1) (= x_0 (- nx 1))) (and (= (- y_0 1) y_1) (= x_0 (- nx 1)))) (<= 0 y_1) (<= y_1 (- ny 1)) (<= 1 y_0) (<= y_0 (- ny 2)) (<= 1 x_0) (<= x_0 (- nx 2)))) (exists ((q_1 Int)(y_0 Int)(x_0 Int)(y_1 Int)(q_0 Int)(x_1 Int)) (and (<= 1 y_1) (<= y_1 (- ny 2)) (<= 1 x_1) (<= x_1 (- nx 2)) (or (and (= x_0 (- x_1 1)) (= y_0 y_1)) (and (= y_0 y_1) (= x_0 (+ x_1 1))) (and (= y_0 (+ y_1 1)) (= x_0 x_1)) (and (= y_0 (- y_1 1)) (= x_0 x_1)) (and (= y_0 y_1) (= x_0 x_1))) (<= 0 q_1) (<= 0 y_0) (<= y_0 (- ny 1)) (<= q_1 (- nit 1)) (<= 0 x_0) (<= x_0 (- nx 1)) (<= 0 q_0) (<= q_0 (- nit 1)))) (exists ((q_1 Int)(y_0 Int)(x_0 Int)(y_1 Int)(q_0 Int)) (and (= x_0 (- nx 1)) (<= 0 q_1) (<= 0 y_0) (<= q_1 (- nit 1)) (<= y_0 (- ny 1)) (<= 0 x_0) (<= x_0 (- nx 1)) (<= 0 y_1) (<= 0 q_0) (<= q_0 (- nit 1)) (<= y_1 (- ny 1)) (= y_0 y_1))) (exists ((q_1 Int)(y_0 Int)(x_0 Int)(q_0 Int)(x_1 Int)) (and (<= 0 q_1) (<= 0 y_0) (<= q_1 (- nit 1)) (<= y_0 (- ny 1)) (<= 0 x_0) (<= x_0 (- nx 1)) (<= 0 q_0) (<= q_0 (- nit 1)) (<= 0 x_1) (<= x_1 (- nx 1)) (= x_0 x_1) (= y_0 0))) (exists ((q_1 Int)(y_0 Int)(x_0 Int)(y_1 Int)(q_0 Int)) (and (= x_0 0) (<= 0 q_1) (<= 0 y_0) (<= q_1 (- nit 1)) (<= y_0 (- ny 1)) (<= 0 x_0) (<= x_0 (- nx 1)) (<= 0 y_1) (<= 0 q_0) (<= q_0 (- nit 1)) (<= y_1 (- ny 1)) (= y_0 y_1))) (exists ((q_1 Int)(y_0 Int)(x_0 Int)(q_0 Int)(x_1 Int)) (and (= y_0 (- ny 1)) (<= 0 q_1) (<= 0 y_0) (<= q_1 (- nit 1)) (<= y_0 (- ny 1)) (<= 0 x_0) (<= x_0 (- nx 1)) (<= 0 q_0) (<= q_0 (- nit 1)) (<= 0 x_1) (<= x_1 (- nx 1)) (= x_0 x_1))) (exists ((y_0 Int)(x_0 Int)(y_1 Int)(q_0 Int)(x_1 Int)) (and (<= 1 y_1) (<= y_1 (- ny 2)) (<= 1 x_1) (<= x_1 (- nx 2)) (<= 1 x_0) (<= 0 q_0) (<= 1 y_0) (<= y_0 (- ny 2)) (<= q_0 (- nit 1)) (<= x_0 (- nx 2)) (= y_0 y_1) (= x_0 x_1))) (exists ((q_1 Int)(y_0 Int)(x_0 Int)(y_1 Int)(q_0 Int)(x_1 Int)) (and (<= q_0 (- nit 1)) (<= x_1 (- nx 1)) (<= 0 q_1) (<= q_1 (- nit 1)) (or (and (= y_0 y_1) (= (- x_0 1) x_1)) (and (= (+ y_0 1) y_1) (= x_0 x_1)) (and (= (- y_0 1) y_1) (= x_0 x_1)) (and (= (+ x_0 1) x_1) (= y_0 y_1)) (and (= y_0 y_1) (= x_0 x_1))) (<= 0 y_1) (<= 0 q_0) (<= 1 y_0) (<= y_0 (- ny 2)) (<= y_1 (- ny 1)) (<= 1 x_0) (<= x_0 (- nx 2)) (<= 0 x_1))) (exists ((x_0 Int)(y_0 Int)(y_1 Int)) (and (or (and (= (+ x_0 1) (- nx 1)) (= y_0 y_1)) (and (= (+ y_0 1) y_1) (= x_0 (- nx 1))) (and (= (- y_0 1) y_1) (= x_0 (- nx 1))) (and (= y_0 y_1) (= (- x_0 1) (- nx 1)))) (<= 0 y_1) (<= y_1 (- ny 1)) (<= 1 y_0) (<= y_0 (- ny 2)) (<= 1 x_0) (<= x_0 (- nx 2)))) (exists ((q_1 Int)(y_0 Int)(x_0 Int)(y_1 Int)(q_0 Int)(x_1 Int)) (and (<= 1 y_1) (<= y_1 (- ny 2)) (<= 1 x_1) (<= x_1 (- nx 2)) (<= 1 x_0) (<= 0 q_1) (<= q_1 (- nit 1)) (<= 0 q_0) (<= 1 y_0) (<= y_0 (- ny 2)) (<= q_0 (- nit 1)) (<= x_0 (- nx 2)) (= y_0 y_1) (= x_0 x_1))) (exists ((q_1 Int)(y_0 Int)(x_0 Int)(y_1 Int)(q_0 Int)) (and (<= 1 x_0) (<= 0 q_1) (<= q_1 (- nit 1)) (<= 0 y_1) (<= 0 q_0) (<= 1 y_0) (<= y_0 (- ny 2)) (<= y_1 (- ny 1)) (<= q_0 (- nit 1)) (<= x_0 (- nx 2)) (or (and (= x_0 (- nx 2)) (= y_0 y_1)) (and (= x_0 (- nx 1)) (= y_0 y_1))))) (exists ((q_1 Int)(y_0 Int)(x_0 Int)(q_0 Int)(x_1 Int)) (and (<= q_0 (- nit 1)) (<= x_1 (- nx 1)) (or (and (= x_0 x_1) (= y_0 1)) (and (= x_0 x_1) (= y_0 0))) (<= 0 q_1) (<= q_1 (- nit 1)) (<= 0 q_0) (<= 1 y_0) (<= y_0 (- ny 2)) (<= 0 x_1) (<= 1 x_0) (<= x_0 (- nx 2)))) (exists ((q_1 Int)(y_0 Int)(x_0 Int)(y_1 Int)(q_0 Int)) (and (<= 1 x_0) (<= 0 q_1) (<= q_1 (- nit 1)) (or (and (= x_0 1) (= y_0 y_1)) (and (= x_0 0) (= y_0 y_1))) (<= 0 y_1) (<= 0 q_0) (<= 1 y_0) (<= y_0 (- ny 2)) (<= y_1 (- ny 1)) (<= q_0 (- nit 1)) (<= x_0 (- nx 2)))) (exists ((q_1 Int)(y_0 Int)(x_0 Int)(q_0 Int)(x_1 Int)) (and (<= q_0 (- nit 1)) (<= x_1 (- nx 1)) (= y_0 (- ny 1)) (<= 0 q_1) (<= q_1 (- nit 1)) (<= 0 q_0) (<= 1 y_0) (<= y_0 (- ny 2)) (<= 0 x_1) (<= 1 x_0) (<= x_0 (- nx 2)) (= x_0 x_1))) (exists ((y_0 Int)(x_0 Int)(y_1 Int)(q_0 Int)(x_1 Int)) (and (<= 1 y_1) (<= y_1 (- ny 2)) (or (and (= y_0 y_1) (= x_0 (+ x_1 1))) (and (= x_0 (- x_1 1)) (= y_0 y_1))) (<= 1 x_1) (<= x_1 (- nx 2)) (<= 1 x_0) (<= 0 q_0) (<= 1 y_0) (<= y_0 (- ny 2)) (<= q_0 (- nit 1)) (<= x_0 (- nx 2)))) (exists ((y_0 Int)(x_0 Int)(y_1 Int)(q_0 Int)(x_1 Int)) (and (<= 1 y_1) (<= y_1 (- ny 2)) (or (and (= y_0 (- y_1 1)) (= x_0 x_1)) (and (= y_0 (+ y_1 1)) (= x_0 x_1))) (<= 1 x_1) (<= x_1 (- nx 2)) (<= 1 x_0) (<= 0 q_0) (<= 1 y_0) (<= y_0 (- ny 2)) (<= q_0 (- nit 1)) (<= x_0 (- nx 2)))) (exists ((x_0 Int)(x_1 Int)(y_0 Int)) (and (<= x_1 (- nx 1)) (<= 1 y_0) (<= y_0 (- ny 2)) (<= 0 x_1) (<= 1 x_0) (<= x_0 (- nx 2)) (or (and (= (+ y_0 1) (- ny 1)) (= x_0 x_1)) (and (= x_0 x_1) (= (- y_0 1) (- ny 1))) (and (= (- x_0 1) x_1) (= y_0 (- ny 1))) (and (= (+ x_0 1) x_1) (= y_0 (- ny 1)))))) (exists ((q_1 Int)(y_0 Int)(y_1 Int)(q_0 Int)(x_1 Int)) (and (<= 0 q_1) (<= 0 y_0) (<= q_1 (- nit 1)) (<= y_0 (- ny 1)) (<= 0 y_1) (<= 0 q_0) (<= q_0 (- nit 1)) (<= y_1 (- ny 1)) (<= 0 x_1) (<= x_1 (- nx 1)) (= y_0 y_1) (= (- nx 1) x_1))) (exists ((q_1 Int)(y_0 Int)(y_1 Int)(q_0 Int)) (and (<= 0 q_1) (<= 0 y_0) (<= q_1 (- nit 1)) (<= y_0 (- ny 1)) (<= 0 y_1) (<= 0 q_0) (<= q_0 (- nit 1)) (<= y_1 (- ny 1)) (or (and (= (- nx 2) (- nx 1)) (= y_0 y_1)) (and (= y_0 y_1) (= (- nx 1) (- nx 2))) (= y_0 y_1)))) (exists ((x_1 Int)(q_1 Int)(y_0 Int)(q_0 Int)) (and (<= 0 q_1) (<= 0 y_0) (<= q_1 (- nit 1)) (<= y_0 (- ny 1)) (or (and (= (- nx 1) x_1) (= y_0 0)) (and (= (- nx 2) x_1) (= y_0 0)) (and (= (- nx 1) x_1) (= y_0 1))) (<= 0 q_0) (<= q_0 (- nit 1)) (<= 0 x_1) (<= x_1 (- nx 1)))) (exists ((q_1 Int)(y_0 Int)(y_1 Int)(q_0 Int)) (and (<= 0 q_1) (<= 0 y_0) (<= q_1 (- nit 1)) (<= y_0 (- ny 1)) (<= 0 y_1) (<= 0 q_0) (<= q_0 (- nit 1)) (<= y_1 (- ny 1)) (or (and (= y_0 y_1) (= (- nx 1) 1)) (and (= y_0 y_1) (= (- nx 2) 0)) (and (= (- nx 1) 0) (= y_0 y_1))))) (exists ((x_1 Int)(q_1 Int)(y_0 Int)(q_0 Int)) (and (or (and (= (- nx 1) x_1) (= y_0 (- ny 1))) (and (= (- nx 2) x_1) (= y_0 (- ny 1)))) (<= 0 q_1) (<= 0 y_0) (<= q_1 (- nit 1)) (<= y_0 (- ny 1)) (<= 0 q_0) (<= q_0 (- nit 1)) (<= 0 x_1) (<= x_1 (- nx 1)))) (exists ((x_1 Int)(y_0 Int)(y_1 Int)(q_0 Int)) (and (<= 1 y_1) (<= y_1 (- ny 2)) (<= 1 x_1) (<= x_1 (- nx 2)) (<= 0 y_0) (<= y_0 (- ny 1)) (<= 0 q_0) (<= q_0 (- nit 1)) (or (and (= y_0 (- y_1 1)) (= (- nx 1) x_1)) (and (= y_0 (+ y_1 1)) (= (- nx 1) x_1))))) (exists ((x_0 Int)(x_1 Int)(q_1 Int)(q_0 Int)) (and (<= 0 q_1) (<= q_1 (- nit 1)) (<= 0 x_0) (<= x_0 (- nx 1)) (<= 0 q_0) (<= q_0 (- nit 1)) (<= 0 x_1) (<= x_1 (- nx 1)) (or (and (= 1 (- ny 1)) (= x_0 x_1)) (and (= 0 (- ny 1)) (= x_0 x_1))))) (exists ((x_0 Int)(x_1 Int)(y_1 Int)(q_0 Int)) (and (<= 1 y_1) (<= y_1 (- ny 2)) (or (and (= x_0 (- x_1 1)) (= 0 y_1)) (and (= 0 y_1) (= x_0 (+ x_1 1)))) (<= x_1 (- nx 2)) (<= 1 x_1) (<= 0 x_0) (<= x_0 (- nx 1)) (<= 0 q_0) (<= q_0 (- nit 1)))) (exists ((q_1 Int)(y_0 Int)(y_1 Int)(q_0 Int)(x_1 Int)) (and (= 0 x_1) (<= 0 q_1) (<= 0 y_0) (<= q_1 (- nit 1)) (<= y_0 (- ny 1)) (<= 0 y_1) (<= 0 q_0) (<= q_0 (- nit 1)) (<= y_1 (- ny 1)) (<= 0 x_1) (<= x_1 (- nx 1)) (= y_0 y_1))) (exists ((q_1 Int)(y_0 Int)(y_1 Int)(q_0 Int)) (and (<= 0 q_1) (<= 0 y_0) (<= q_1 (- nit 1)) (<= y_0 (- ny 1)) (or (and (= y_0 y_1) (= 0 (- nx 2))) (and (= 0 (- nx 1)) (= y_0 y_1)) (and (= y_0 y_1) (= 1 (- nx 1)))) (<= 0 y_1) (<= 0 q_0) (<= q_0 (- nit 1)) (<= y_1 (- ny 1)))) (exists ((x_1 Int)(q_1 Int)(y_0 Int)(q_0 Int)) (and (<= 0 q_1) (<= 0 y_0) (<= q_1 (- nit 1)) (<= y_0 (- ny 1)) (<= 0 q_0) (<= q_0 (- nit 1)) (<= 0 x_1) (<= x_1 (- nx 1)) (or (and (= 1 x_1) (= y_0 0)) (and (= 0 x_1) (= y_0 1)) (and (= 0 x_1) (= y_0 0))))) (exists ((q_1 Int)(y_0 Int)(y_1 Int)(q_0 Int)) (and (<= 0 q_1) (<= 0 y_0) (<= q_1 (- nit 1)) (<= y_0 (- ny 1)) (<= 0 y_1) (<= 0 q_0) (<= q_0 (- nit 1)) (<= y_1 (- ny 1)) (= y_0 y_1))) (exists ((x_0 Int)(x_1 Int)(y_1 Int)) (and (<= 0 x_0) (<= x_0 (- nx 1)) (= 0 y_1) (<= 0 y_1) (<= y_1 (- ny 1)) (<= 0 x_1) (<= x_1 (- nx 1)) (= x_0 x_1))) (exists ((x_1 Int)(q_1 Int)(y_0 Int)(q_0 Int)) (and (<= 0 q_1) (<= 0 y_0) (<= q_1 (- nit 1)) (<= y_0 (- ny 1)) (or (and (= 0 x_1) (= y_0 (- ny 1))) (and (= 1 x_1) (= y_0 (- ny 1)))) (<= 0 q_0) (<= q_0 (- nit 1)) (<= 0 x_1) (<= x_1 (- nx 1)))) (exists ((x_0 Int)(q_1 Int)(y_0 Int)(y_1 Int)) (and (<= 0 q_1) (<= q_1 (- nit 1)) (<= 0 y_1) (<= y_1 (- ny 1)) (<= 1 y_0) (<= y_0 (- ny 2)) (<= 1 x_0) (<= x_0 (- nx 2)) (or (and (= (+ x_0 1) (- nx 1)) (= y_0 y_1)) (and (= y_0 y_1) (= (- x_0 1) (- nx 1)))))) (exists ((x_0 Int)(q_1 Int)(x_1 Int)(y_0 Int)) (and (<= x_1 (- nx 1)) (<= 0 q_1) (<= q_1 (- nit 1)) (<= 1 y_0) (<= y_0 (- ny 2)) (<= 0 x_1) (<= 1 x_0) (<= x_0 (- nx 2)) (or (and (= (+ x_0 1) x_1) (= y_0 0)) (and (= y_0 0) (= (- x_0 1) x_1))))) (exists ((x_0 Int)(q_1 Int)(x_1 Int)(y_0 Int)) (and (<= x_1 (- nx 1)) (or (and (= (- x_0 1) x_1) (= y_0 (- ny 1))) (and (= (+ x_0 1) x_1) (= y_0 (- ny 1)))) (<= 0 q_1) (<= q_1 (- nit 1)) (<= 1 y_0) (<= y_0 (- ny 2)) (<= 0 x_1) (<= 1 x_0) (<= x_0 (- nx 2)))) (exists ((x_0 Int)(x_1 Int)(y_1 Int)) (and (<= 1 y_1) (<= y_1 (- ny 2)) (<= 1 x_1) (<= x_1 (- nx 2)) (<= 0 x_0) (<= x_0 (- nx 1)) (or (and (= x_0 (- x_1 1)) (= 0 y_1)) (and (= 0 (+ y_1 1)) (= x_0 x_1)) (and (= 0 y_1) (= x_0 (+ x_1 1))) (and (= 0 (- y_1 1)) (= x_0 x_1))))) (exists ((x_0 Int)(x_1 Int)(y_1 Int)) (and (<= 1 y_1) (<= y_1 (- ny 2)) (<= 1 x_1) (<= x_1 (- nx 2)) (<= 0 x_0) (<= x_0 (- nx 1)) (= 0 y_1) (= x_0 x_1))) (exists ((x_0 Int)(x_1 Int)) (and (<= 0 x_0) (<= x_0 (- nx 1)) (<= 0 x_1) (<= x_1 (- nx 1)) (= x_0 x_1))) (exists ((x_0 Int)(y_1 Int)) (and (= x_0 0) (<= 0 x_0) (<= x_0 (- nx 1)) (= 0 y_1) (<= 0 y_1) (<= y_1 (- ny 1)))) (exists ((x_0 Int)(y_1 Int)) (and (= x_0 (- nx 1)) (<= 0 x_0) (<= x_0 (- nx 1)) (= 0 y_1) (<= 0 y_1) (<= y_1 (- ny 1)))) (exists ((x_0 Int)(x_1 Int)) (and (<= 0 x_0) (<= x_0 (- nx 1)) (= 0 (- ny 1)) (<= 0 x_1) (<= x_1 (- nx 1)) (= x_0 x_1))) (exists ((x_1 Int)(y_0 Int)(y_1 Int)) (and (= 0 x_1) (<= 0 y_0) (<= y_0 (- ny 1)) (<= 0 y_1) (<= y_1 (- ny 1)) (<= 0 x_1) (<= x_1 (- nx 1)) (= y_0 y_1))) (exists ((x_1 Int)(y_0 Int)(y_1 Int)) (and (<= 1 y_1) (<= y_1 (- ny 2)) (<= 1 x_1) (<= x_1 (- nx 2)) (or (and (= y_0 y_1) (= 0 (+ x_1 1))) (and (= 0 (- x_1 1)) (= y_0 y_1)) (and (= y_0 (- y_1 1)) (= 0 x_1)) (and (= 0 x_1) (= y_0 (+ y_1 1)))) (<= 0 y_0) (<= y_0 (- ny 1)))) (exists ((x_1 Int)(y_0 Int)(y_1 Int)) (and (<= 1 y_1) (<= y_1 (- ny 2)) (<= 1 x_1) (<= x_1 (- nx 2)) (= 0 x_1) (<= 0 y_0) (<= y_0 (- ny 1)) (= y_0 y_1))) (exists ((x_1 Int)(y_0 Int)) (and (= 0 x_1) (<= 0 y_0) (<= y_0 (- ny 1)) (<= 0 x_1) (<= x_1 (- nx 1)) (= y_0 0))) (exists ((y_0 Int)(y_1 Int)) (and (<= 0 y_0) (<= y_0 (- ny 1)) (<= 0 y_1) (<= y_1 (- ny 1)) (= y_0 y_1))) (exists ((y_0 Int)(y_1 Int)) (and (<= 0 y_0) (<= y_0 (- ny 1)) (= 0 (- nx 1)) (<= 0 y_1) (<= y_1 (- ny 1)) (= y_0 y_1))) (exists ((x_1 Int)(y_0 Int)) (and (= y_0 (- ny 1)) (= 0 x_1) (<= 0 y_0) (<= y_0 (- ny 1)) (<= 0 x_1) (<= x_1 (- nx 1)))) (exists ((x_1 Int)(y_0 Int)(y_1 Int)) (and (<= 0 y_0) (<= y_0 (- ny 1)) (<= 0 y_1) (<= y_1 (- ny 1)) (<= 0 x_1) (<= x_1 (- nx 1)) (= y_0 y_1) (= (- nx 1) x_1))) (exists ((x_1 Int)(y_0 Int)(y_1 Int)) (and (<= 1 y_1) (<= y_1 (- ny 2)) (<= 1 x_1) (<= x_1 (- nx 2)) (<= 0 y_0) (<= y_0 (- ny 1)) (or (and (= y_0 y_1) (= (- nx 1) (+ x_1 1))) (and (= y_0 (- y_1 1)) (= (- nx 1) x_1)) (and (= y_0 (+ y_1 1)) (= (- nx 1) x_1)) (and (= (- nx 1) (- x_1 1)) (= y_0 y_1))))) (exists ((x_1 Int)(y_0 Int)(y_1 Int)) (and (<= 1 y_1) (<= y_1 (- ny 2)) (<= 1 x_1) (<= x_1 (- nx 2)) (<= 0 y_0) (<= y_0 (- ny 1)) (= y_0 y_1) (= (- nx 1) x_1))) (exists ((x_1 Int)(y_0 Int)) (and (<= 0 y_0) (<= y_0 (- ny 1)) (<= 0 x_1) (<= x_1 (- nx 1)) (= (- nx 1) x_1) (= y_0 0))) (exists ((y_0 Int)(y_1 Int)) (and (<= 0 y_0) (<= y_0 (- ny 1)) (<= 0 y_1) (<= y_1 (- ny 1)) (= (- nx 1) 0) (= y_0 y_1))) (exists ((x_1 Int)(y_0 Int)) (and (= y_0 (- ny 1)) (<= 0 y_0) (<= y_0 (- ny 1)) (<= 0 x_1) (<= x_1 (- nx 1)) (= (- nx 1) x_1))) (exists ((x_0 Int)(x_1 Int)(y_1 Int)) (and (<= 0 x_0) (<= x_0 (- nx 1)) (<= 0 y_1) (<= y_1 (- ny 1)) (<= 0 x_1) (<= x_1 (- nx 1)) (= (- ny 1) y_1) (= x_0 x_1))) (exists ((x_0 Int)(x_1 Int)(y_1 Int)) (and (<= 1 y_1) (<= y_1 (- ny 2)) (<= 1 x_1) (<= x_1 (- nx 2)) (or (and (= x_0 (- x_1 1)) (= (- ny 1) y_1)) (and (= (- ny 1) y_1) (= x_0 (+ x_1 1))) (and (= (- ny 1) (- y_1 1)) (= x_0 x_1)) (and (= x_0 x_1) (= (- ny 1) (+ y_1 1)))) (<= 0 x_0) (<= x_0 (- nx 1)))) (exists ((x_0 Int)(x_1 Int)(y_1 Int)) (and (<= 1 y_1) (<= y_1 (- ny 2)) (<= 1 x_1) (<= x_1 (- nx 2)) (<= 0 x_0) (<= x_0 (- nx 1)) (= (- ny 1) y_1) (= x_0 x_1))) (exists ((x_0 Int)(x_1 Int)) (and (= (- ny 1) 0) (<= 0 x_0) (<= x_0 (- nx 1)) (<= 0 x_1) (<= x_1 (- nx 1)) (= x_0 x_1))) (exists ((x_0 Int)(y_1 Int)) (and (= x_0 0) (<= 0 x_0) (<= x_0 (- nx 1)) (<= 0 y_1) (<= y_1 (- ny 1)) (= (- ny 1) y_1))) (exists ((x_0 Int)(y_1 Int)) (and (= x_0 (- nx 1)) (<= 0 x_0) (<= x_0 (- nx 1)) (<= 0 y_1) (<= y_1 (- ny 1)) (= (- ny 1) y_1))) (exists ((x_0 Int)(q_1 Int)(y_0 Int)(y_1 Int)) (and (<= 0 q_1) (<= q_1 (- nit 1)) (<= 0 y_1) (<= y_1 (- ny 1)) (<= 1 y_0) (<= y_0 (- ny 2)) (<= 1 x_0) (<= x_0 (- nx 2)) (or (and (= x_0 0) (= (- y_0 1) y_1)) (and (= (+ y_0 1) y_1) (= x_0 0))))) (exists ((q_1 Int)(y_0 Int)(x_0 Int)(y_1 Int)(x_1 Int)) (and (<= 1 y_1) (<= y_1 (- ny 2)) (<= 1 x_1) (<= x_1 (- nx 2)) (or (and (= (+ y_0 1) y_1) (= x_0 x_1)) (and (= (- y_0 1) y_1) (= x_0 x_1))) (<= 0 q_1) (<= q_1 (- nit 1)) (<= 1 y_0) (<= y_0 (- ny 2)) (<= 1 x_0) (<= x_0 (- nx 2))))))
      (<= 1 (- nt 1))
    )
    false
  )
))

(check-sat)